width,height
25,25
4,1
9,21
11,11
22,4
14,1
7,10
22,14
14,14
23,3
13,20
18,17
3,23
14,16
2,11
24,9
5,25
7,17
11,20
12,5
1,12
7,16
18,19
7,19
5,2
2,5
8,23
18,4
2,10
24,12
6,1
8,22
24,12
2,22
4,15
17,16
21,3
6,24
12,10
6,23
5,8
16,11
7,22
15,3
12,13
2,19
25,22
25,8
5,8
8,11
21,17
13,9
23,2
5,4
17,1
13,12
7,5
14,1
17,18
22,17
21,23
1,10
22,10
9,21
19,21
3,8
7,10
6,13
16,6
16,25
24,21
17,5
15,11
16,12
8,7
17,11
5,9
22,16
13,10
15,14
14,17
11,20
24,13
5,11
21,13
6,18
8,12
11,18
14,17
5,3
4,11
11,18
8,11
4,3
8,2
7,11
20,24
6,14
23,8
1,11
12,14
